
50
151696

6821 7821
917 1917
6179 7179
8420 9420
8346 9346
5151 6151
6311 7311
3693 4693
5281 6281
1079 2079
6830 7830
6007 7007
2820 3820
3786 4786
7362 8362
4439 5439
9597 10597
9713 10713
8384 9384
911 1911
752 1752
2886 3886
3612 4612
7050 8050
8269 9269
5627 6627
6392 7392
5731 6731
341 1341
5267 6267
2133 3133
4170 5170
88 1088
6558 7558
9103 10103
687 1687
5801 6801
235 1235
3519 4519
1593 2593
8606 9606
7281 8281
8966 9966
2180 3180
7189 8189
6995 7995
5107 6107
9162 10162
6250 7250
2829 3829
